p cnf 30 45
-23 -28 -13 0
-24 -14 -6 0
-12 28 -27 0
1 -30 -21 0
-9 29 -15 0
-9 10 30 0
28 -21 30 0
-19 15 -6 0
-5 18 -7 0
-26 8 -10 0
-18 -1 -24 0
6 1 -25 0
-22 -20 26 0
23 -28 -18 0
10 -15 14 0
21 13 15 0
-4 -2 -29 0
8 -13 3 0
25 18 13 0
-12 -8 23 0
-2 -22 15 0
-24 2 -10 0
-5 -26 -6 0
5 15 28 0
-22 6 29 0
13 -15 18 0
9 -16 -3 0
-22 11 13 0
-2 3 -5 0
-8 12 5 0
-20 -27 -16 0
1 -15 28 0
-11 20 -15 0
17 21 4 0
-15 22 2 0
29 3 12 0
12 -3 25 0
-11 26 -10 0
-25 -16 2 0
-8 23 14 0
24 8 2 0
-15 -14 -10 0
-24 9 30 0
-5 20 -19 0
-13 25 28 0
